========================================================== 
File name: C:\DEGR\assets\definitions\MSRCPSP_Gen\100_20_64_5_A.def
Creation date: Wed May 03 10:38:39 CEST 2023
Website: http://imopse.ii.pwr.edu.pl/ 
Reference: 
Myszkowski P. B., Skowronski M. E., Olech L., Oslizlo K., 
Hybrid Ant Colony Optimization in solving Multi-Skill Resource-Constrained Project Scheduling Problem, 
Soft Computing, DOI: DOI 10.1007/s00500-014-1455-x 
========================================================== 
General characteristics: 
Tasks: 100
Resources: 20
Precedence relations: 63
Number of skill types: 5
========================================================== 
ResourceID 	 Salary 	 Skills 
1	 	 	57.5	 	 Q1: 3 	  Q3: 3 	  Q2: 0 	 
2	 	 	67.4	 	 Q2: 2 	  Q1: 0 	  Q3: 1 	 
3	 	 	89.8	 	 Q3: 0 	  Q2: 3 	 
4	 	 	29.0	 	 Q3: 3 	  Q1: 1 	 
5	 	 	52.4	 	 Q3: 2 	  Q0: 0 	  Q4: 0 	  Q2: 0 	 
6	 	 	28.5	 	 Q4: 3 	 
7	 	 	53.7	 	 Q0: 3 	  Q4: 1 	  Q1: 2 	  Q3: 1 	 
8	 	 	67.9	 	 Q4: 0 	  Q3: 2 	  Q1: 1 	  Q0: 2 	 
9	 	 	53.1	 	 Q2: 2 	  Q1: 1 	  Q4: 3 	 
10	 	 	37.9	 	 Q1: 2 	  Q0: 2 	 
11	 	 	27.3	 	 Q3: 0 	  Q2: 1 	 
12	 	 	89.1	 	 Q3: 2 	  Q0: 0 	  Q1: 3 	 
13	 	 	22.2	 	 Q2: 3 	 
14	 	 	69.1	 	 Q2: 1 	  Q0: 2 	  Q3: 0 	  Q4: 0 	 
15	 	 	69.6	 	 Q1: 0 	 
16	 	 	36.0	 	 Q1: 3 	  Q2: 3 	  Q0: 2 	  Q3: 2 	 
17	 	 	12.2	 	 Q4: 1 	  Q1: 0 	  Q0: 2 	 
18	 	 	97.0	 	 Q1: 2 	  Q0: 3 	  Q2: 3 	 
19	 	 	99.8	 	 Q3: 2 	 
20	 	 	83.4	 	 Q4: 0 	 
========================================================== 
TaskID 	 Duration 	 Skill 	 Predecessor IDs 
1	28	Q4:	1
2	31	Q1:	0
3	24	Q1:	0
4	19	Q0:	3
5	36	Q3:	2
6	32	Q0:	2
7	9	Q2:	1
8	27	Q0:	3
9	18	Q4:	3
10	40	Q1:	2
11	39	Q3:	3
12	37	Q0:	2
13	19	Q4:	3
14	27	Q3:	2
15	22	Q2:	3	14
16	39	Q1:	3
17	33	Q2:	2	1
18	38	Q3:	2
19	34	Q3:	2
20	31	Q4:	3
21	27	Q0:	3
22	13	Q0:	3
23	31	Q0:	0	9
24	35	Q2:	0	20
25	36	Q0:	2
26	30	Q4:	1	25
27	21	Q2:	1	10
28	17	Q3:	0
29	15	Q2:	1	19
30	34	Q3:	3
31	13	Q1:	3
32	24	Q1:	2
33	25	Q1:	2
34	21	Q1:	1	9
35	15	Q1:	2
36	40	Q4:	1
37	23	Q2:	2
38	11	Q2:	0
39	23	Q0:	2
40	13	Q3:	2
41	34	Q0:	2	27
42	25	Q1:	0	6
43	27	Q3:	1
44	28	Q3:	1
45	33	Q3:	3	26
46	23	Q3:	3
47	12	Q1:	1
48	9	Q1:	1	22	46
49	35	Q3:	0
50	36	Q4:	1	31	8
51	29	Q2:	2
52	32	Q4:	0
53	37	Q0:	3
54	17	Q0:	2	5
55	26	Q1:	0	14	45
56	32	Q0:	0
57	32	Q3:	1	16	49
58	15	Q2:	3	44
59	37	Q2:	0
60	26	Q1:	0
61	20	Q2:	1	50	2
62	20	Q1:	0
63	14	Q4:	1	53
64	28	Q4:	0	58
65	33	Q1:	3
66	37	Q1:	3	4
67	33	Q3:	0	32	40	4
68	26	Q1:	1	55
69	24	Q1:	1
70	14	Q3:	0
71	21	Q0:	0
72	39	Q2:	1	20	51
73	39	Q0:	3	1
74	22	Q3:	3	25
75	23	Q0:	3	45
76	19	Q0:	2
77	9	Q3:	1	54	64
78	20	Q2:	0	65
79	9	Q1:	0	21	6
80	28	Q4:	3	78
81	9	Q1:	0
82	17	Q3:	2	34
83	11	Q1:	1	14	46
84	23	Q2:	0	62
85	29	Q0:	3
86	14	Q1:	1
87	33	Q2:	3	19	63	48
88	13	Q1:	0	12
89	13	Q2:	3	25
90	37	Q4:	0
91	36	Q2:	2	23
92	40	Q4:	0
93	17	Q3:	1
94	13	Q2:	3	75	42
95	31	Q4:	3	78	50
96	17	Q1:	0	30	47
97	23	Q1:	3	79
98	13	Q2:	3	42	18
99	23	Q2:	2	29	16
100	19	Q3:	1	45
========================================================== 